(set-info :smt-lib-version 2.6)
(set-logic AUFBVFPDTNIRA)
(set-info :source |
Generated by: AdaCore
Generated on: 2020-03-06
Generator: SPARK
Application: Program verification for Ada
Target solver: CVC4
|)
(set-info :license "https://creativecommons.org/licenses/by/4.0/")
(set-info :category "industrial")
(set-info :status unknown)
;;; generated by SMT-LIB2 driver
;;; SMT-LIB2 driver: bit-vectors, common part
;;; SMT-LIB2: integer arithmetic
(declare-sort string 0)

(declare-datatypes ((tuple0 0))
(((Tuple0))))
(declare-sort us_private 0)

(declare-fun private__bool_eq (us_private us_private) Bool)

(declare-const us_null_ext__ us_private)

(declare-sort us_type_of_heap 0)

(declare-datatypes ((us_type_of_heap__ref 0))
(((us_type_of_heap__refqtmk (us_type_of_heap__content us_type_of_heap)))))
(declare-sort us_image 0)

(declare-datatypes ((int__ref 0))
(((int__refqtmk (int__content Int)))))
(declare-datatypes ((bool__ref 0))
(((bool__refqtmk (bool__content Bool)))))
(declare-datatypes ((us_fixed__ref 0))
(((us_fixed__refqtmk (us_fixed__content Int)))))
(declare-datatypes ((real__ref 0))
(((real__refqtmk (real__content Real)))))
(declare-datatypes ((us_private__ref 0))
(((us_private__refqtmk (us_private__content us_private)))))
(define-fun int__ref___projection ((a int__ref)) Int (int__content a))

(define-fun us_fixed__ref___projection ((a us_fixed__ref)) Int (us_fixed__content
                                                               a))

(define-fun bool__ref___projection ((a bool__ref)) Bool (bool__content a))

(define-fun real__ref___projection ((a real__ref)) Real (real__content a))

(define-fun us_private__ref___projection ((a us_private__ref)) us_private 
  (us_private__content a))

(define-fun in_range ((x Int)) Bool (or (= x 0) (= x 1)))

(declare-fun attr__ATTRIBUTE_IMAGE (Bool) us_image)

(declare-fun attr__ATTRIBUTE_VALUE__pre_check (us_image) Bool)

(declare-fun attr__ATTRIBUTE_VALUE (us_image) Bool)

(declare-sort pt 0)

(declare-fun user_eq (pt pt) Bool)

(declare-const value__size Int)

(declare-const object__size Int)

(declare-const alignment Int)

;; value__size_axiom
  (assert (<= 0 value__size))

;; object__size_axiom
  (assert (<= 0 object__size))

;; alignment_axiom
  (assert (<= 0 alignment))

(declare-datatypes ((pt__ref 0))
(((pt__refqtmk (pt__content pt)))))
(define-fun pt__ref_pt__content__projection ((a pt__ref)) pt (pt__content a))

(declare-datatypes ((map__ref 0))
(((map__refqtmk (map__content (Array Int pt))))))
(declare-fun slide ((Array Int pt) Int Int) (Array Int pt))

;; slide_eq
  (assert
  (forall ((a (Array Int pt)))
  (forall ((first Int))
  (! (= (slide a first first) a) :pattern ((slide a first first)) ))))

;; slide_def
  (assert
  (forall ((a (Array Int pt)))
  (forall ((old_first Int))
  (forall ((new_first Int))
  (forall ((i Int))
  (! (= (select (slide a old_first new_first) i) (select a (- i (- new_first old_first)))) :pattern ((select 
  (slide a old_first new_first) i)) ))))))

(declare-fun bool_eq ((Array Int pt) Int Int (Array Int pt) Int Int) Bool)

(declare-const attr__ATTRIBUTE_ADDRESS Int)

(declare-const attr__ATTRIBUTE_ADDRESS1 Int)

(declare-sort priority 0)

(declare-fun priorityqtint (priority) Int)

;; priority'axiom
  (assert
  (forall ((i priority))
  (and (<= 0 (priorityqtint i)) (<= (priorityqtint i) 97))))

(define-fun in_range1 ((x Int)) Bool (and (<= 0 x) (<= x 97)))

(declare-fun attr__ATTRIBUTE_IMAGE1 (Int) us_image)

(declare-fun attr__ATTRIBUTE_VALUE__pre_check1 (us_image) Bool)

(declare-fun attr__ATTRIBUTE_VALUE1 (us_image) Int)

(declare-fun user_eq1 (priority priority) Bool)

(declare-const dummy priority)

(declare-datatypes ((priority__ref 0))
(((priority__refqtmk (priority__content priority)))))
(define-fun priority__ref_priority__content__projection ((a priority__ref)) priority 
  (priority__content a))

(define-fun dynamic_invariant ((temp___expr_168 Int)
  (temp___is_init_164 Bool) (temp___skip_constant_165 Bool)
  (temp___do_toplevel_166 Bool)
  (temp___do_typ_inv_167 Bool)) Bool (=>
                                     (or (= temp___is_init_164 true)
                                     (<= 0 97)) (in_range1 temp___expr_168)))

(assert
;; defqtvc
 ;; File "main.adb", line 4, characters 0-0
  (not (<= 48 97)))
(check-sat)
(exit)
